NAME : att48.tour
COMMENT : --file=data/att48.tsp --mode=nn --2opt --tlim=600 --nnOption=tryall --emOption=random --vnsOption=nn --seed=2023 --threads=4 --roundcosts --plot --save --loglvl=debug 
TYPE : TOUR
DIMENSION : 48
TOUR_SECTION
10
24
42
5
48
39
32
21
47
13
25
14
23
11
12
20
43
17
27
19
37
6
30
28
36
7
18
44
46
33
15
40
9
31
38
8
1
16
22
3
34
41
29
2
26
4
35
45
-1
